n1 = 10;
adjacent1 = [| 0, 0, 1, 0, 0, 0, 1, 0, 0, 0
| 0, 0, 1, 1, 0, 0, 0, 0, 0, 0
| 1, 1, 0, 0, 1, 0, 0, 0, 0, 0
| 0, 1, 0, 0, 0, 0, 0, 1, 0, 0
| 0, 0, 1, 0, 0, 0, 0, 0, 0, 0
| 0, 0, 0, 0, 0, 0, 0, 1, 1, 1
| 1, 0, 0, 0, 0, 0, 0, 0, 0, 1
| 0, 0, 0, 1, 0, 1, 0, 0, 0, 0
| 0, 0, 0, 0, 0, 1, 0, 0, 0, 0
| 0, 0, 0, 0, 0, 1, 1, 0, 0, 0 |];
n2 = 10;
adjacent2 = [| 0, 0, 1, 0, 0, 0, 1, 1, 0, 0
| 0, 0, 0, 0, 0, 1, 1, 0, 0, 0
| 1, 0, 0, 0, 0, 0, 0, 0, 0, 0
| 0, 0, 0, 0, 0, 0, 0, 0, 0, 1
| 0, 0, 0, 0, 0, 0, 0, 1, 1, 0
| 0, 1, 0, 0, 0, 0, 0, 0, 0, 1
| 1, 1, 0, 0, 0, 0, 0, 0, 0, 0
| 1, 0, 0, 0, 1, 0, 0, 0, 0, 0
| 0, 0, 0, 0, 1, 0, 0, 0, 0, 1
| 0, 0, 0, 1, 0, 1, 0, 0, 1, 0 |];
vertexDeletionCost = [45, 45, 45, 45, 45, 45, 45, 45, 45, 45];
vertexInsertionCost = [45, 45, 45, 45, 45, 45, 45, 45, 45, 45];
vertexSubstitutionCost = [| 90, 90, 90, 90, 90, 27.98660393831306, 90, 90, 90, 90
| 90, 90, 90, 90, 90, 90, 90, 90, 23.926972228010797, 90
| 90, 90, 90, 90, 90, 90, 90, 90, 90, 30.602287496198713
| 90, 90, 90, 90, 30.20347662107791, 90, 59.609143593915185, 42.64387412044079, 90, 90
| 90, 90, 90, 29.614185789921695, 90, 90, 90, 90, 90, 90
| 36.87817782917155, 90, 90, 90, 90, 90, 90, 90, 90, 90
| 90, 36.98986347636336, 90, 90, 90, 90, 90, 90, 90, 90
| 90, 90, 90, 90, 84.60053191322145, 90, 31.03626910567699, 30.01666203960727, 90, 90
| 90, 90, 32.687918257362305, 90, 90, 90, 90, 90, 90, 90
| 90, 90, 90, 90, 86.11765208132418, 90, 28.111385593741193, 29.832867780352597, 90, 90 |];
edgeDeletionCost = [| 0.0, 0.0, 7.5, 0.0, 0.0, 0.0, 7.5, 0.0, 0.0, 0.0
| 0.0, 0.0, 7.5, 7.5, 0.0, 0.0, 0.0, 0.0, 0.0, 0.0
| 7.5, 7.5, 0.0, 0.0, 7.5, 0.0, 0.0, 0.0, 0.0, 0.0
| 0.0, 7.5, 0.0, 0.0, 0.0, 0.0, 0.0, 7.5, 0.0, 0.0
| 0.0, 0.0, 7.5, 0.0, 0.0, 0.0, 0.0, 0.0, 0.0, 0.0
| 0.0, 0.0, 0.0, 0.0, 0.0, 0.0, 0.0, 7.5, 7.5, 7.5
| 7.5, 0.0, 0.0, 0.0, 0.0, 0.0, 0.0, 0.0, 0.0, 7.5
| 0.0, 0.0, 0.0, 7.5, 0.0, 7.5, 0.0, 0.0, 0.0, 0.0
| 0.0, 0.0, 0.0, 0.0, 0.0, 7.5, 0.0, 0.0, 0.0, 0.0
| 0.0, 0.0, 0.0, 0.0, 0.0, 7.5, 7.5, 0.0, 0.0, 0.0 |];
edgeInsertionCost = [| 0.0, 0.0, 7.5, 0.0, 0.0, 0.0, 7.5, 7.5, 0.0, 0.0
| 0.0, 0.0, 0.0, 0.0, 0.0, 7.5, 7.5, 0.0, 0.0, 0.0
| 7.5, 0.0, 0.0, 0.0, 0.0, 0.0, 0.0, 0.0, 0.0, 0.0
| 0.0, 0.0, 0.0, 0.0, 0.0, 0.0, 0.0, 0.0, 0.0, 7.5
| 0.0, 0.0, 0.0, 0.0, 0.0, 0.0, 0.0, 7.5, 7.5, 0.0
| 0.0, 7.5, 0.0, 0.0, 0.0, 0.0, 0.0, 0.0, 0.0, 7.5
| 7.5, 7.5, 0.0, 0.0, 0.0, 0.0, 0.0, 0.0, 0.0, 0.0
| 7.5, 0.0, 0.0, 0.0, 7.5, 0.0, 0.0, 0.0, 0.0, 0.0
| 0.0, 0.0, 0.0, 0.0, 7.5, 0.0, 0.0, 0.0, 0.0, 7.5
| 0.0, 0.0, 0.0, 7.5, 0.0, 7.5, 0.0, 0.0, 7.5, 0.0 |];
edgeSubstitutionCost = array4d(1..n1, 1..n1, 1..n2, 1..n2, [0, 0, 7.5, 0, 0, 0, 7.5, 7.5, 0, 0, 0, 0, 0, 0, 0, 7.5, 7.5, 0, 0, 0, 7.5, 0, 0, 0, 0, 0, 0, 0, 0, 0, 0, 0, 0, 0, 0, 0, 0, 0, 0, 7.5, 0, 0, 0, 0, 0, 0, 0, 7.5, 7.5, 0, 0, 7.5, 0, 0, 0, 0, 0, 0, 0, 7.5, 7.5, 7.5, 0, 0, 0, 0, 0, 0, 0, 0, 7.5, 0, 0, 0, 7.5, 0, 0, 0, 0, 0, 0, 0, 0, 0, 7.5, 0, 0, 0, 0, 7.5, 0, 0, 0, 7.5, 0, 7.5, 0, 0, 7.5, 0, 0, 0, 7.5, 0, 0, 0, 7.5, 7.5, 0, 0, 0, 0, 0, 0, 0, 7.5, 7.5, 0, 0, 0, 7.5, 0, 0, 0, 0, 0, 0, 0, 0, 0, 0, 0, 0, 0, 0, 0, 0, 0, 0, 7.5, 0, 0, 0, 0, 0, 0, 0, 7.5, 7.5, 0, 0, 7.5, 0, 0, 0, 0, 0, 0, 0, 7.5, 7.5, 7.5, 0, 0, 0, 0, 0, 0, 0, 0, 7.5, 0, 0, 0, 7.5, 0, 0, 0, 0, 0, 0, 0, 0, 0, 7.5, 0, 0, 0, 0, 7.5, 0, 0, 0, 7.5, 0, 7.5, 0, 0, 7.5, 0, 7.5, 7.5, 0.0, 7.5, 7.5, 7.5, 0.0, 0.0, 7.5, 7.5, 7.5, 7.5, 7.5, 7.5, 7.5, 0.0, 0.0, 7.5, 7.5, 7.5, 0.0, 7.5, 7.5, 7.5, 7.5, 7.5, 7.5, 7.5, 7.5, 7.5, 7.5, 7.5, 7.5, 7.5, 7.5, 7.5, 7.5, 7.5, 7.5, 0.0, 7.5, 7.5, 7.5, 7.5, 7.5, 7.5, 7.5, 0.0, 0.0, 7.5, 7.5, 0.0, 7.5, 7.5, 7.5, 7.5, 7.5, 7.5, 7.5, 0.0, 0.0, 0.0, 7.5, 7.5, 7.5, 7.5, 7.5, 7.5, 7.5, 7.5, 0.0, 7.5, 7.5, 7.5, 0.0, 7.5, 7.5, 7.5, 7.5, 7.5, 7.5, 7.5, 7.5, 7.5, 0.0, 7.5, 7.5, 7.5, 7.5, 0.0, 7.5, 7.5, 7.5, 0.0, 7.5, 0.0, 7.5, 7.5, 0.0, 7.5, 0, 0, 7.5, 0, 0, 0, 7.5, 7.5, 0, 0, 0, 0, 0, 0, 0, 7.5, 7.5, 0, 0, 0, 7.5, 0, 0, 0, 0, 0, 0, 0, 0, 0, 0, 0, 0, 0, 0, 0, 0, 0, 0, 7.5, 0, 0, 0, 0, 0, 0, 0, 7.5, 7.5, 0, 0, 7.5, 0, 0, 0, 0, 0, 0, 0, 7.5, 7.5, 7.5, 0, 0, 0, 0, 0, 0, 0, 0, 7.5, 0, 0, 0, 7.5, 0, 0, 0, 0, 0, 0, 0, 0, 0, 7.5, 0, 0, 0, 0, 7.5, 0, 0, 0, 7.5, 0, 7.5, 0, 0, 7.5, 0, 0, 0, 7.5, 0, 0, 0, 7.5, 7.5, 0, 0, 0, 0, 0, 0, 0, 7.5, 7.5, 0, 0, 0, 7.5, 0, 0, 0, 0, 0, 0, 0, 0, 0, 0, 0, 0, 0, 0, 0, 0, 0, 0, 7.5, 0, 0, 0, 0, 0, 0, 0, 7.5, 7.5, 0, 0, 7.5, 0, 0, 0, 0, 0, 0, 0, 7.5, 7.5, 7.5, 0, 0, 0, 0, 0, 0, 0, 0, 7.5, 0, 0, 0, 7.5, 0, 0, 0, 0, 0, 0, 0, 0, 0, 7.5, 0, 0, 0, 0, 7.5, 0, 0, 0, 7.5, 0, 7.5, 0, 0, 7.5, 0, 0, 0, 7.5, 0, 0, 0, 7.5, 7.5, 0, 0, 0, 0, 0, 0, 0, 7.5, 7.5, 0, 0, 0, 7.5, 0, 0, 0, 0, 0, 0, 0, 0, 0, 0, 0, 0, 0, 0, 0, 0, 0, 0, 7.5, 0, 0, 0, 0, 0, 0, 0, 7.5, 7.5, 0, 0, 7.5, 0, 0, 0, 0, 0, 0, 0, 7.5, 7.5, 7.5, 0, 0, 0, 0, 0, 0, 0, 0, 7.5, 0, 0, 0, 7.5, 0, 0, 0, 0, 0, 0, 0, 0, 0, 7.5, 0, 0, 0, 0, 7.5, 0, 0, 0, 7.5, 0, 7.5, 0, 0, 7.5, 0, 7.5, 7.5, 0.0, 7.5, 7.5, 7.5, 0.0, 0.0, 7.5, 7.5, 7.5, 7.5, 7.5, 7.5, 7.5, 0.0, 0.0, 7.5, 7.5, 7.5, 0.0, 7.5, 7.5, 7.5, 7.5, 7.5, 7.5, 7.5, 7.5, 7.5, 7.5, 7.5, 7.5, 7.5, 7.5, 7.5, 7.5, 7.5, 7.5, 0.0, 7.5, 7.5, 7.5, 7.5, 7.5, 7.5, 7.5, 0.0, 0.0, 7.5, 7.5, 0.0, 7.5, 7.5, 7.5, 7.5, 7.5, 7.5, 7.5, 0.0, 0.0, 0.0, 7.5, 7.5, 7.5, 7.5, 7.5, 7.5, 7.5, 7.5, 0.0, 7.5, 7.5, 7.5, 0.0, 7.5, 7.5, 7.5, 7.5, 7.5, 7.5, 7.5, 7.5, 7.5, 0.0, 7.5, 7.5, 7.5, 7.5, 0.0, 7.5, 7.5, 7.5, 0.0, 7.5, 0.0, 7.5, 7.5, 0.0, 7.5, 0, 0, 7.5, 0, 0, 0, 7.5, 7.5, 0, 0, 0, 0, 0, 0, 0, 7.5, 7.5, 0, 0, 0, 7.5, 0, 0, 0, 0, 0, 0, 0, 0, 0, 0, 0, 0, 0, 0, 0, 0, 0, 0, 7.5, 0, 0, 0, 0, 0, 0, 0, 7.5, 7.5, 0, 0, 7.5, 0, 0, 0, 0, 0, 0, 0, 7.5, 7.5, 7.5, 0, 0, 0, 0, 0, 0, 0, 0, 7.5, 0, 0, 0, 7.5, 0, 0, 0, 0, 0, 0, 0, 0, 0, 7.5, 0, 0, 0, 0, 7.5, 0, 0, 0, 7.5, 0, 7.5, 0, 0, 7.5, 0, 0, 0, 7.5, 0, 0, 0, 7.5, 7.5, 0, 0, 0, 0, 0, 0, 0, 7.5, 7.5, 0, 0, 0, 7.5, 0, 0, 0, 0, 0, 0, 0, 0, 0, 0, 0, 0, 0, 0, 0, 0, 0, 0, 7.5, 0, 0, 0, 0, 0, 0, 0, 7.5, 7.5, 0, 0, 7.5, 0, 0, 0, 0, 0, 0, 0, 7.5, 7.5, 7.5, 0, 0, 0, 0, 0, 0, 0, 0, 7.5, 0, 0, 0, 7.5, 0, 0, 0, 0, 0, 0, 0, 0, 0, 7.5, 0, 0, 0, 0, 7.5, 0, 0, 0, 7.5, 0, 7.5, 0, 0, 7.5, 0, 0, 0, 7.5, 0, 0, 0, 7.5, 7.5, 0, 0, 0, 0, 0, 0, 0, 7.5, 7.5, 0, 0, 0, 7.5, 0, 0, 0, 0, 0, 0, 0, 0, 0, 0, 0, 0, 0, 0, 0, 0, 0, 0, 7.5, 0, 0, 0, 0, 0, 0, 0, 7.5, 7.5, 0, 0, 7.5, 0, 0, 0, 0, 0, 0, 0, 7.5, 7.5, 7.5, 0, 0, 0, 0, 0, 0, 0, 0, 7.5, 0, 0, 0, 7.5, 0, 0, 0, 0, 0, 0, 0, 0, 0, 7.5, 0, 0, 0, 0, 7.5, 0, 0, 0, 7.5, 0, 7.5, 0, 0, 7.5, 0, 0, 0, 7.5, 0, 0, 0, 7.5, 7.5, 0, 0, 0, 0, 0, 0, 0, 7.5, 7.5, 0, 0, 0, 7.5, 0, 0, 0, 0, 0, 0, 0, 0, 0, 0, 0, 0, 0, 0, 0, 0, 0, 0, 7.5, 0, 0, 0, 0, 0, 0, 0, 7.5, 7.5, 0, 0, 7.5, 0, 0, 0, 0, 0, 0, 0, 7.5, 7.5, 7.5, 0, 0, 0, 0, 0, 0, 0, 0, 7.5, 0, 0, 0, 7.5, 0, 0, 0, 0, 0, 0, 0, 0, 0, 7.5, 0, 0, 0, 0, 7.5, 0, 0, 0, 7.5, 0, 7.5, 0, 0, 7.5, 0, 0, 0, 7.5, 0, 0, 0, 7.5, 7.5, 0, 0, 0, 0, 0, 0, 0, 7.5, 7.5, 0, 0, 0, 7.5, 0, 0, 0, 0, 0, 0, 0, 0, 0, 0, 0, 0, 0, 0, 0, 0, 0, 0, 7.5, 0, 0, 0, 0, 0, 0, 0, 7.5, 7.5, 0, 0, 7.5, 0, 0, 0, 0, 0, 0, 0, 7.5, 7.5, 7.5, 0, 0, 0, 0, 0, 0, 0, 0, 7.5, 0, 0, 0, 7.5, 0, 0, 0, 0, 0, 0, 0, 0, 0, 7.5, 0, 0, 0, 0, 7.5, 0, 0, 0, 7.5, 0, 7.5, 0, 0, 7.5, 0, 7.5, 7.5, 0.0, 7.5, 7.5, 7.5, 0.0, 0.0, 7.5, 7.5, 7.5, 7.5, 7.5, 7.5, 7.5, 0.0, 0.0, 7.5, 7.5, 7.5, 0.0, 7.5, 7.5, 7.5, 7.5, 7.5, 7.5, 7.5, 7.5, 7.5, 7.5, 7.5, 7.5, 7.5, 7.5, 7.5, 7.5, 7.5, 7.5, 0.0, 7.5, 7.5, 7.5, 7.5, 7.5, 7.5, 7.5, 0.0, 0.0, 7.5, 7.5, 0.0, 7.5, 7.5, 7.5, 7.5, 7.5, 7.5, 7.5, 0.0, 0.0, 0.0, 7.5, 7.5, 7.5, 7.5, 7.5, 7.5, 7.5, 7.5, 0.0, 7.5, 7.5, 7.5, 0.0, 7.5, 7.5, 7.5, 7.5, 7.5, 7.5, 7.5, 7.5, 7.5, 0.0, 7.5, 7.5, 7.5, 7.5, 0.0, 7.5, 7.5, 7.5, 0.0, 7.5, 0.0, 7.5, 7.5, 0.0, 7.5, 7.5, 7.5, 0.0, 7.5, 7.5, 7.5, 0.0, 0.0, 7.5, 7.5, 7.5, 7.5, 7.5, 7.5, 7.5, 0.0, 0.0, 7.5, 7.5, 7.5, 0.0, 7.5, 7.5, 7.5, 7.5, 7.5, 7.5, 7.5, 7.5, 7.5, 7.5, 7.5, 7.5, 7.5, 7.5, 7.5, 7.5, 7.5, 7.5, 0.0, 7.5, 7.5, 7.5, 7.5, 7.5, 7.5, 7.5, 0.0, 0.0, 7.5, 7.5, 0.0, 7.5, 7.5, 7.5, 7.5, 7.5, 7.5, 7.5, 0.0, 0.0, 0.0, 7.5, 7.5, 7.5, 7.5, 7.5, 7.5, 7.5, 7.5, 0.0, 7.5, 7.5, 7.5, 0.0, 7.5, 7.5, 7.5, 7.5, 7.5, 7.5, 7.5, 7.5, 7.5, 0.0, 7.5, 7.5, 7.5, 7.5, 0.0, 7.5, 7.5, 7.5, 0.0, 7.5, 0.0, 7.5, 7.5, 0.0, 7.5, 0, 0, 7.5, 0, 0, 0, 7.5, 7.5, 0, 0, 0, 0, 0, 0, 0, 7.5, 7.5, 0, 0, 0, 7.5, 0, 0, 0, 0, 0, 0, 0, 0, 0, 0, 0, 0, 0, 0, 0, 0, 0, 0, 7.5, 0, 0, 0, 0, 0, 0, 0, 7.5, 7.5, 0, 0, 7.5, 0, 0, 0, 0, 0, 0, 0, 7.5, 7.5, 7.5, 0, 0, 0, 0, 0, 0, 0, 0, 7.5, 0, 0, 0, 7.5, 0, 0, 0, 0, 0, 0, 0, 0, 0, 7.5, 0, 0, 0, 0, 7.5, 0, 0, 0, 7.5, 0, 7.5, 0, 0, 7.5, 0, 0, 0, 7.5, 0, 0, 0, 7.5, 7.5, 0, 0, 0, 0, 0, 0, 0, 7.5, 7.5, 0, 0, 0, 7.5, 0, 0, 0, 0, 0, 0, 0, 0, 0, 0, 0, 0, 0, 0, 0, 0, 0, 0, 7.5, 0, 0, 0, 0, 0, 0, 0, 7.5, 7.5, 0, 0, 7.5, 0, 0, 0, 0, 0, 0, 0, 7.5, 7.5, 7.5, 0, 0, 0, 0, 0, 0, 0, 0, 7.5, 0, 0, 0, 7.5, 0, 0, 0, 0, 0, 0, 0, 0, 0, 7.5, 0, 0, 0, 0, 7.5, 0, 0, 0, 7.5, 0, 7.5, 0, 0, 7.5, 0, 0, 0, 7.5, 0, 0, 0, 7.5, 7.5, 0, 0, 0, 0, 0, 0, 0, 7.5, 7.5, 0, 0, 0, 7.5, 0, 0, 0, 0, 0, 0, 0, 0, 0, 0, 0, 0, 0, 0, 0, 0, 0, 0, 7.5, 0, 0, 0, 0, 0, 0, 0, 7.5, 7.5, 0, 0, 7.5, 0, 0, 0, 0, 0, 0, 0, 7.5, 7.5, 7.5, 0, 0, 0, 0, 0, 0, 0, 0, 7.5, 0, 0, 0, 7.5, 0, 0, 0, 0, 0, 0, 0, 0, 0, 7.5, 0, 0, 0, 0, 7.5, 0, 0, 0, 7.5, 0, 7.5, 0, 0, 7.5, 0, 0, 0, 7.5, 0, 0, 0, 7.5, 7.5, 0, 0, 0, 0, 0, 0, 0, 7.5, 7.5, 0, 0, 0, 7.5, 0, 0, 0, 0, 0, 0, 0, 0, 0, 0, 0, 0, 0, 0, 0, 0, 0, 0, 7.5, 0, 0, 0, 0, 0, 0, 0, 7.5, 7.5, 0, 0, 7.5, 0, 0, 0, 0, 0, 0, 0, 7.5, 7.5, 7.5, 0, 0, 0, 0, 0, 0, 0, 0, 7.5, 0, 0, 0, 7.5, 0, 0, 0, 0, 0, 0, 0, 0, 0, 7.5, 0, 0, 0, 0, 7.5, 0, 0, 0, 7.5, 0, 7.5, 0, 0, 7.5, 0, 0, 0, 7.5, 0, 0, 0, 7.5, 7.5, 0, 0, 0, 0, 0, 0, 0, 7.5, 7.5, 0, 0, 0, 7.5, 0, 0, 0, 0, 0, 0, 0, 0, 0, 0, 0, 0, 0, 0, 0, 0, 0, 0, 7.5, 0, 0, 0, 0, 0, 0, 0, 7.5, 7.5, 0, 0, 7.5, 0, 0, 0, 0, 0, 0, 0, 7.5, 7.5, 7.5, 0, 0, 0, 0, 0, 0, 0, 0, 7.5, 0, 0, 0, 7.5, 0, 0, 0, 0, 0, 0, 0, 0, 0, 7.5, 0, 0, 0, 0, 7.5, 0, 0, 0, 7.5, 0, 7.5, 0, 0, 7.5, 0, 0, 0, 7.5, 0, 0, 0, 7.5, 7.5, 0, 0, 0, 0, 0, 0, 0, 7.5, 7.5, 0, 0, 0, 7.5, 0, 0, 0, 0, 0, 0, 0, 0, 0, 0, 0, 0, 0, 0, 0, 0, 0, 0, 7.5, 0, 0, 0, 0, 0, 0, 0, 7.5, 7.5, 0, 0, 7.5, 0, 0, 0, 0, 0, 0, 0, 7.5, 7.5, 7.5, 0, 0, 0, 0, 0, 0, 0, 0, 7.5, 0, 0, 0, 7.5, 0, 0, 0, 0, 0, 0, 0, 0, 0, 7.5, 0, 0, 0, 0, 7.5, 0, 0, 0, 7.5, 0, 7.5, 0, 0, 7.5, 0, 7.5, 7.5, 0.0, 7.5, 7.5, 7.5, 0.0, 0.0, 7.5, 7.5, 7.5, 7.5, 7.5, 7.5, 7.5, 0.0, 0.0, 7.5, 7.5, 7.5, 0.0, 7.5, 7.5, 7.5, 7.5, 7.5, 7.5, 7.5, 7.5, 7.5, 7.5, 7.5, 7.5, 7.5, 7.5, 7.5, 7.5, 7.5, 7.5, 0.0, 7.5, 7.5, 7.5, 7.5, 7.5, 7.5, 7.5, 0.0, 0.0, 7.5, 7.5, 0.0, 7.5, 7.5, 7.5, 7.5, 7.5, 7.5, 7.5, 0.0, 0.0, 0.0, 7.5, 7.5, 7.5, 7.5, 7.5, 7.5, 7.5, 7.5, 0.0, 7.5, 7.5, 7.5, 0.0, 7.5, 7.5, 7.5, 7.5, 7.5, 7.5, 7.5, 7.5, 7.5, 0.0, 7.5, 7.5, 7.5, 7.5, 0.0, 7.5, 7.5, 7.5, 0.0, 7.5, 0.0, 7.5, 7.5, 0.0, 7.5, 7.5, 7.5, 0.0, 7.5, 7.5, 7.5, 0.0, 0.0, 7.5, 7.5, 7.5, 7.5, 7.5, 7.5, 7.5, 0.0, 0.0, 7.5, 7.5, 7.5, 0.0, 7.5, 7.5, 7.5, 7.5, 7.5, 7.5, 7.5, 7.5, 7.5, 7.5, 7.5, 7.5, 7.5, 7.5, 7.5, 7.5, 7.5, 7.5, 0.0, 7.5, 7.5, 7.5, 7.5, 7.5, 7.5, 7.5, 0.0, 0.0, 7.5, 7.5, 0.0, 7.5, 7.5, 7.5, 7.5, 7.5, 7.5, 7.5, 0.0, 0.0, 0.0, 7.5, 7.5, 7.5, 7.5, 7.5, 7.5, 7.5, 7.5, 0.0, 7.5, 7.5, 7.5, 0.0, 7.5, 7.5, 7.5, 7.5, 7.5, 7.5, 7.5, 7.5, 7.5, 0.0, 7.5, 7.5, 7.5, 7.5, 0.0, 7.5, 7.5, 7.5, 0.0, 7.5, 0.0, 7.5, 7.5, 0.0, 7.5, 0, 0, 7.5, 0, 0, 0, 7.5, 7.5, 0, 0, 0, 0, 0, 0, 0, 7.5, 7.5, 0, 0, 0, 7.5, 0, 0, 0, 0, 0, 0, 0, 0, 0, 0, 0, 0, 0, 0, 0, 0, 0, 0, 7.5, 0, 0, 0, 0, 0, 0, 0, 7.5, 7.5, 0, 0, 7.5, 0, 0, 0, 0, 0, 0, 0, 7.5, 7.5, 7.5, 0, 0, 0, 0, 0, 0, 0, 0, 7.5, 0, 0, 0, 7.5, 0, 0, 0, 0, 0, 0, 0, 0, 0, 7.5, 0, 0, 0, 0, 7.5, 0, 0, 0, 7.5, 0, 7.5, 0, 0, 7.5, 0, 0, 0, 7.5, 0, 0, 0, 7.5, 7.5, 0, 0, 0, 0, 0, 0, 0, 7.5, 7.5, 0, 0, 0, 7.5, 0, 0, 0, 0, 0, 0, 0, 0, 0, 0, 0, 0, 0, 0, 0, 0, 0, 0, 7.5, 0, 0, 0, 0, 0, 0, 0, 7.5, 7.5, 0, 0, 7.5, 0, 0, 0, 0, 0, 0, 0, 7.5, 7.5, 7.5, 0, 0, 0, 0, 0, 0, 0, 0, 7.5, 0, 0, 0, 7.5, 0, 0, 0, 0, 0, 0, 0, 0, 0, 7.5, 0, 0, 0, 0, 7.5, 0, 0, 0, 7.5, 0, 7.5, 0, 0, 7.5, 0, 7.5, 7.5, 0.0, 7.5, 7.5, 7.5, 0.0, 0.0, 7.5, 7.5, 7.5, 7.5, 7.5, 7.5, 7.5, 0.0, 0.0, 7.5, 7.5, 7.5, 0.0, 7.5, 7.5, 7.5, 7.5, 7.5, 7.5, 7.5, 7.5, 7.5, 7.5, 7.5, 7.5, 7.5, 7.5, 7.5, 7.5, 7.5, 7.5, 0.0, 7.5, 7.5, 7.5, 7.5, 7.5, 7.5, 7.5, 0.0, 0.0, 7.5, 7.5, 0.0, 7.5, 7.5, 7.5, 7.5, 7.5, 7.5, 7.5, 0.0, 0.0, 0.0, 7.5, 7.5, 7.5, 7.5, 7.5, 7.5, 7.5, 7.5, 0.0, 7.5, 7.5, 7.5, 0.0, 7.5, 7.5, 7.5, 7.5, 7.5, 7.5, 7.5, 7.5, 7.5, 0.0, 7.5, 7.5, 7.5, 7.5, 0.0, 7.5, 7.5, 7.5, 0.0, 7.5, 0.0, 7.5, 7.5, 0.0, 7.5, 0, 0, 7.5, 0, 0, 0, 7.5, 7.5, 0, 0, 0, 0, 0, 0, 0, 7.5, 7.5, 0, 0, 0, 7.5, 0, 0, 0, 0, 0, 0, 0, 0, 0, 0, 0, 0, 0, 0, 0, 0, 0, 0, 7.5, 0, 0, 0, 0, 0, 0, 0, 7.5, 7.5, 0, 0, 7.5, 0, 0, 0, 0, 0, 0, 0, 7.5, 7.5, 7.5, 0, 0, 0, 0, 0, 0, 0, 0, 7.5, 0, 0, 0, 7.5, 0, 0, 0, 0, 0, 0, 0, 0, 0, 7.5, 0, 0, 0, 0, 7.5, 0, 0, 0, 7.5, 0, 7.5, 0, 0, 7.5, 0, 0, 0, 7.5, 0, 0, 0, 7.5, 7.5, 0, 0, 0, 0, 0, 0, 0, 7.5, 7.5, 0, 0, 0, 7.5, 0, 0, 0, 0, 0, 0, 0, 0, 0, 0, 0, 0, 0, 0, 0, 0, 0, 0, 7.5, 0, 0, 0, 0, 0, 0, 0, 7.5, 7.5, 0, 0, 7.5, 0, 0, 0, 0, 0, 0, 0, 7.5, 7.5, 7.5, 0, 0, 0, 0, 0, 0, 0, 0, 7.5, 0, 0, 0, 7.5, 0, 0, 0, 0, 0, 0, 0, 0, 0, 7.5, 0, 0, 0, 0, 7.5, 0, 0, 0, 7.5, 0, 7.5, 0, 0, 7.5, 0, 0, 0, 7.5, 0, 0, 0, 7.5, 7.5, 0, 0, 0, 0, 0, 0, 0, 7.5, 7.5, 0, 0, 0, 7.5, 0, 0, 0, 0, 0, 0, 0, 0, 0, 0, 0, 0, 0, 0, 0, 0, 0, 0, 7.5, 0, 0, 0, 0, 0, 0, 0, 7.5, 7.5, 0, 0, 7.5, 0, 0, 0, 0, 0, 0, 0, 7.5, 7.5, 7.5, 0, 0, 0, 0, 0, 0, 0, 0, 7.5, 0, 0, 0, 7.5, 0, 0, 0, 0, 0, 0, 0, 0, 0, 7.5, 0, 0, 0, 0, 7.5, 0, 0, 0, 7.5, 0, 7.5, 0, 0, 7.5, 0, 0, 0, 7.5, 0, 0, 0, 7.5, 7.5, 0, 0, 0, 0, 0, 0, 0, 7.5, 7.5, 0, 0, 0, 7.5, 0, 0, 0, 0, 0, 0, 0, 0, 0, 0, 0, 0, 0, 0, 0, 0, 0, 0, 7.5, 0, 0, 0, 0, 0, 0, 0, 7.5, 7.5, 0, 0, 7.5, 0, 0, 0, 0, 0, 0, 0, 7.5, 7.5, 7.5, 0, 0, 0, 0, 0, 0, 0, 0, 7.5, 0, 0, 0, 7.5, 0, 0, 0, 0, 0, 0, 0, 0, 0, 7.5, 0, 0, 0, 0, 7.5, 0, 0, 0, 7.5, 0, 7.5, 0, 0, 7.5, 0, 0, 0, 7.5, 0, 0, 0, 7.5, 7.5, 0, 0, 0, 0, 0, 0, 0, 7.5, 7.5, 0, 0, 0, 7.5, 0, 0, 0, 0, 0, 0, 0, 0, 0, 0, 0, 0, 0, 0, 0, 0, 0, 0, 7.5, 0, 0, 0, 0, 0, 0, 0, 7.5, 7.5, 0, 0, 7.5, 0, 0, 0, 0, 0, 0, 0, 7.5, 7.5, 7.5, 0, 0, 0, 0, 0, 0, 0, 0, 7.5, 0, 0, 0, 7.5, 0, 0, 0, 0, 0, 0, 0, 0, 0, 7.5, 0, 0, 0, 0, 7.5, 0, 0, 0, 7.5, 0, 7.5, 0, 0, 7.5, 0, 0, 0, 7.5, 0, 0, 0, 7.5, 7.5, 0, 0, 0, 0, 0, 0, 0, 7.5, 7.5, 0, 0, 0, 7.5, 0, 0, 0, 0, 0, 0, 0, 0, 0, 0, 0, 0, 0, 0, 0, 0, 0, 0, 7.5, 0, 0, 0, 0, 0, 0, 0, 7.5, 7.5, 0, 0, 7.5, 0, 0, 0, 0, 0, 0, 0, 7.5, 7.5, 7.5, 0, 0, 0, 0, 0, 0, 0, 0, 7.5, 0, 0, 0, 7.5, 0, 0, 0, 0, 0, 0, 0, 0, 0, 7.5, 0, 0, 0, 0, 7.5, 0, 0, 0, 7.5, 0, 7.5, 0, 0, 7.5, 0, 7.5, 7.5, 0.0, 7.5, 7.5, 7.5, 0.0, 0.0, 7.5, 7.5, 7.5, 7.5, 7.5, 7.5, 7.5, 0.0, 0.0, 7.5, 7.5, 7.5, 0.0, 7.5, 7.5, 7.5, 7.5, 7.5, 7.5, 7.5, 7.5, 7.5, 7.5, 7.5, 7.5, 7.5, 7.5, 7.5, 7.5, 7.5, 7.5, 0.0, 7.5, 7.5, 7.5, 7.5, 7.5, 7.5, 7.5, 0.0, 0.0, 7.5, 7.5, 0.0, 7.5, 7.5, 7.5, 7.5, 7.5, 7.5, 7.5, 0.0, 0.0, 0.0, 7.5, 7.5, 7.5, 7.5, 7.5, 7.5, 7.5, 7.5, 0.0, 7.5, 7.5, 7.5, 0.0, 7.5, 7.5, 7.5, 7.5, 7.5, 7.5, 7.5, 7.5, 7.5, 0.0, 7.5, 7.5, 7.5, 7.5, 0.0, 7.5, 7.5, 7.5, 0.0, 7.5, 0.0, 7.5, 7.5, 0.0, 7.5, 0, 0, 7.5, 0, 0, 0, 7.5, 7.5, 0, 0, 0, 0, 0, 0, 0, 7.5, 7.5, 0, 0, 0, 7.5, 0, 0, 0, 0, 0, 0, 0, 0, 0, 0, 0, 0, 0, 0, 0, 0, 0, 0, 7.5, 0, 0, 0, 0, 0, 0, 0, 7.5, 7.5, 0, 0, 7.5, 0, 0, 0, 0, 0, 0, 0, 7.5, 7.5, 7.5, 0, 0, 0, 0, 0, 0, 0, 0, 7.5, 0, 0, 0, 7.5, 0, 0, 0, 0, 0, 0, 0, 0, 0, 7.5, 0, 0, 0, 0, 7.5, 0, 0, 0, 7.5, 0, 7.5, 0, 0, 7.5, 0, 0, 0, 7.5, 0, 0, 0, 7.5, 7.5, 0, 0, 0, 0, 0, 0, 0, 7.5, 7.5, 0, 0, 0, 7.5, 0, 0, 0, 0, 0, 0, 0, 0, 0, 0, 0, 0, 0, 0, 0, 0, 0, 0, 7.5, 0, 0, 0, 0, 0, 0, 0, 7.5, 7.5, 0, 0, 7.5, 0, 0, 0, 0, 0, 0, 0, 7.5, 7.5, 7.5, 0, 0, 0, 0, 0, 0, 0, 0, 7.5, 0, 0, 0, 7.5, 0, 0, 0, 0, 0, 0, 0, 0, 0, 7.5, 0, 0, 0, 0, 7.5, 0, 0, 0, 7.5, 0, 7.5, 0, 0, 7.5, 0, 0, 0, 7.5, 0, 0, 0, 7.5, 7.5, 0, 0, 0, 0, 0, 0, 0, 7.5, 7.5, 0, 0, 0, 7.5, 0, 0, 0, 0, 0, 0, 0, 0, 0, 0, 0, 0, 0, 0, 0, 0, 0, 0, 7.5, 0, 0, 0, 0, 0, 0, 0, 7.5, 7.5, 0, 0, 7.5, 0, 0, 0, 0, 0, 0, 0, 7.5, 7.5, 7.5, 0, 0, 0, 0, 0, 0, 0, 0, 7.5, 0, 0, 0, 7.5, 0, 0, 0, 0, 0, 0, 0, 0, 0, 7.5, 0, 0, 0, 0, 7.5, 0, 0, 0, 7.5, 0, 7.5, 0, 0, 7.5, 0, 0, 0, 7.5, 0, 0, 0, 7.5, 7.5, 0, 0, 0, 0, 0, 0, 0, 7.5, 7.5, 0, 0, 0, 7.5, 0, 0, 0, 0, 0, 0, 0, 0, 0, 0, 0, 0, 0, 0, 0, 0, 0, 0, 7.5, 0, 0, 0, 0, 0, 0, 0, 7.5, 7.5, 0, 0, 7.5, 0, 0, 0, 0, 0, 0, 0, 7.5, 7.5, 7.5, 0, 0, 0, 0, 0, 0, 0, 0, 7.5, 0, 0, 0, 7.5, 0, 0, 0, 0, 0, 0, 0, 0, 0, 7.5, 0, 0, 0, 0, 7.5, 0, 0, 0, 7.5, 0, 7.5, 0, 0, 7.5, 0, 0, 0, 7.5, 0, 0, 0, 7.5, 7.5, 0, 0, 0, 0, 0, 0, 0, 7.5, 7.5, 0, 0, 0, 7.5, 0, 0, 0, 0, 0, 0, 0, 0, 0, 0, 0, 0, 0, 0, 0, 0, 0, 0, 7.5, 0, 0, 0, 0, 0, 0, 0, 7.5, 7.5, 0, 0, 7.5, 0, 0, 0, 0, 0, 0, 0, 7.5, 7.5, 7.5, 0, 0, 0, 0, 0, 0, 0, 0, 7.5, 0, 0, 0, 7.5, 0, 0, 0, 0, 0, 0, 0, 0, 0, 7.5, 0, 0, 0, 0, 7.5, 0, 0, 0, 7.5, 0, 7.5, 0, 0, 7.5, 0, 7.5, 7.5, 0.0, 7.5, 7.5, 7.5, 0.0, 0.0, 7.5, 7.5, 7.5, 7.5, 7.5, 7.5, 7.5, 0.0, 0.0, 7.5, 7.5, 7.5, 0.0, 7.5, 7.5, 7.5, 7.5, 7.5, 7.5, 7.5, 7.5, 7.5, 7.5, 7.5, 7.5, 7.5, 7.5, 7.5, 7.5, 7.5, 7.5, 0.0, 7.5, 7.5, 7.5, 7.5, 7.5, 7.5, 7.5, 0.0, 0.0, 7.5, 7.5, 0.0, 7.5, 7.5, 7.5, 7.5, 7.5, 7.5, 7.5, 0.0, 0.0, 0.0, 7.5, 7.5, 7.5, 7.5, 7.5, 7.5, 7.5, 7.5, 0.0, 7.5, 7.5, 7.5, 0.0, 7.5, 7.5, 7.5, 7.5, 7.5, 7.5, 7.5, 7.5, 7.5, 0.0, 7.5, 7.5, 7.5, 7.5, 0.0, 7.5, 7.5, 7.5, 0.0, 7.5, 0.0, 7.5, 7.5, 0.0, 7.5, 0, 0, 7.5, 0, 0, 0, 7.5, 7.5, 0, 0, 0, 0, 0, 0, 0, 7.5, 7.5, 0, 0, 0, 7.5, 0, 0, 0, 0, 0, 0, 0, 0, 0, 0, 0, 0, 0, 0, 0, 0, 0, 0, 7.5, 0, 0, 0, 0, 0, 0, 0, 7.5, 7.5, 0, 0, 7.5, 0, 0, 0, 0, 0, 0, 0, 7.5, 7.5, 7.5, 0, 0, 0, 0, 0, 0, 0, 0, 7.5, 0, 0, 0, 7.5, 0, 0, 0, 0, 0, 0, 0, 0, 0, 7.5, 0, 0, 0, 0, 7.5, 0, 0, 0, 7.5, 0, 7.5, 0, 0, 7.5, 0, 0, 0, 7.5, 0, 0, 0, 7.5, 7.5, 0, 0, 0, 0, 0, 0, 0, 7.5, 7.5, 0, 0, 0, 7.5, 0, 0, 0, 0, 0, 0, 0, 0, 0, 0, 0, 0, 0, 0, 0, 0, 0, 0, 7.5, 0, 0, 0, 0, 0, 0, 0, 7.5, 7.5, 0, 0, 7.5, 0, 0, 0, 0, 0, 0, 0, 7.5, 7.5, 7.5, 0, 0, 0, 0, 0, 0, 0, 0, 7.5, 0, 0, 0, 7.5, 0, 0, 0, 0, 0, 0, 0, 0, 0, 7.5, 0, 0, 0, 0, 7.5, 0, 0, 0, 7.5, 0, 7.5, 0, 0, 7.5, 0, 0, 0, 7.5, 0, 0, 0, 7.5, 7.5, 0, 0, 0, 0, 0, 0, 0, 7.5, 7.5, 0, 0, 0, 7.5, 0, 0, 0, 0, 0, 0, 0, 0, 0, 0, 0, 0, 0, 0, 0, 0, 0, 0, 7.5, 0, 0, 0, 0, 0, 0, 0, 7.5, 7.5, 0, 0, 7.5, 0, 0, 0, 0, 0, 0, 0, 7.5, 7.5, 7.5, 0, 0, 0, 0, 0, 0, 0, 0, 7.5, 0, 0, 0, 7.5, 0, 0, 0, 0, 0, 0, 0, 0, 0, 7.5, 0, 0, 0, 0, 7.5, 0, 0, 0, 7.5, 0, 7.5, 0, 0, 7.5, 0, 0, 0, 7.5, 0, 0, 0, 7.5, 7.5, 0, 0, 0, 0, 0, 0, 0, 7.5, 7.5, 0, 0, 0, 7.5, 0, 0, 0, 0, 0, 0, 0, 0, 0, 0, 0, 0, 0, 0, 0, 0, 0, 0, 7.5, 0, 0, 0, 0, 0, 0, 0, 7.5, 7.5, 0, 0, 7.5, 0, 0, 0, 0, 0, 0, 0, 7.5, 7.5, 7.5, 0, 0, 0, 0, 0, 0, 0, 0, 7.5, 0, 0, 0, 7.5, 0, 0, 0, 0, 0, 0, 0, 0, 0, 7.5, 0, 0, 0, 0, 7.5, 0, 0, 0, 7.5, 0, 7.5, 0, 0, 7.5, 0, 7.5, 7.5, 0.0, 7.5, 7.5, 7.5, 0.0, 0.0, 7.5, 7.5, 7.5, 7.5, 7.5, 7.5, 7.5, 0.0, 0.0, 7.5, 7.5, 7.5, 0.0, 7.5, 7.5, 7.5, 7.5, 7.5, 7.5, 7.5, 7.5, 7.5, 7.5, 7.5, 7.5, 7.5, 7.5, 7.5, 7.5, 7.5, 7.5, 0.0, 7.5, 7.5, 7.5, 7.5, 7.5, 7.5, 7.5, 0.0, 0.0, 7.5, 7.5, 0.0, 7.5, 7.5, 7.5, 7.5, 7.5, 7.5, 7.5, 0.0, 0.0, 0.0, 7.5, 7.5, 7.5, 7.5, 7.5, 7.5, 7.5, 7.5, 0.0, 7.5, 7.5, 7.5, 0.0, 7.5, 7.5, 7.5, 7.5, 7.5, 7.5, 7.5, 7.5, 7.5, 0.0, 7.5, 7.5, 7.5, 7.5, 0.0, 7.5, 7.5, 7.5, 0.0, 7.5, 0.0, 7.5, 7.5, 0.0, 7.5, 0, 0, 7.5, 0, 0, 0, 7.5, 7.5, 0, 0, 0, 0, 0, 0, 0, 7.5, 7.5, 0, 0, 0, 7.5, 0, 0, 0, 0, 0, 0, 0, 0, 0, 0, 0, 0, 0, 0, 0, 0, 0, 0, 7.5, 0, 0, 0, 0, 0, 0, 0, 7.5, 7.5, 0, 0, 7.5, 0, 0, 0, 0, 0, 0, 0, 7.5, 7.5, 7.5, 0, 0, 0, 0, 0, 0, 0, 0, 7.5, 0, 0, 0, 7.5, 0, 0, 0, 0, 0, 0, 0, 0, 0, 7.5, 0, 0, 0, 0, 7.5, 0, 0, 0, 7.5, 0, 7.5, 0, 0, 7.5, 0, 0, 0, 7.5, 0, 0, 0, 7.5, 7.5, 0, 0, 0, 0, 0, 0, 0, 7.5, 7.5, 0, 0, 0, 7.5, 0, 0, 0, 0, 0, 0, 0, 0, 0, 0, 0, 0, 0, 0, 0, 0, 0, 0, 7.5, 0, 0, 0, 0, 0, 0, 0, 7.5, 7.5, 0, 0, 7.5, 0, 0, 0, 0, 0, 0, 0, 7.5, 7.5, 7.5, 0, 0, 0, 0, 0, 0, 0, 0, 7.5, 0, 0, 0, 7.5, 0, 0, 0, 0, 0, 0, 0, 0, 0, 7.5, 0, 0, 0, 0, 7.5, 0, 0, 0, 7.5, 0, 7.5, 0, 0, 7.5, 0, 0, 0, 7.5, 0, 0, 0, 7.5, 7.5, 0, 0, 0, 0, 0, 0, 0, 7.5, 7.5, 0, 0, 0, 7.5, 0, 0, 0, 0, 0, 0, 0, 0, 0, 0, 0, 0, 0, 0, 0, 0, 0, 0, 7.5, 0, 0, 0, 0, 0, 0, 0, 7.5, 7.5, 0, 0, 7.5, 0, 0, 0, 0, 0, 0, 0, 7.5, 7.5, 7.5, 0, 0, 0, 0, 0, 0, 0, 0, 7.5, 0, 0, 0, 7.5, 0, 0, 0, 0, 0, 0, 0, 0, 0, 7.5, 0, 0, 0, 0, 7.5, 0, 0, 0, 7.5, 0, 7.5, 0, 0, 7.5, 0, 0, 0, 7.5, 0, 0, 0, 7.5, 7.5, 0, 0, 0, 0, 0, 0, 0, 7.5, 7.5, 0, 0, 0, 7.5, 0, 0, 0, 0, 0, 0, 0, 0, 0, 0, 0, 0, 0, 0, 0, 0, 0, 0, 7.5, 0, 0, 0, 0, 0, 0, 0, 7.5, 7.5, 0, 0, 7.5, 0, 0, 0, 0, 0, 0, 0, 7.5, 7.5, 7.5, 0, 0, 0, 0, 0, 0, 0, 0, 7.5, 0, 0, 0, 7.5, 0, 0, 0, 0, 0, 0, 0, 0, 0, 7.5, 0, 0, 0, 0, 7.5, 0, 0, 0, 7.5, 0, 7.5, 0, 0, 7.5, 0, 0, 0, 7.5, 0, 0, 0, 7.5, 7.5, 0, 0, 0, 0, 0, 0, 0, 7.5, 7.5, 0, 0, 0, 7.5, 0, 0, 0, 0, 0, 0, 0, 0, 0, 0, 0, 0, 0, 0, 0, 0, 0, 0, 7.5, 0, 0, 0, 0, 0, 0, 0, 7.5, 7.5, 0, 0, 7.5, 0, 0, 0, 0, 0, 0, 0, 7.5, 7.5, 7.5, 0, 0, 0, 0, 0, 0, 0, 0, 7.5, 0, 0, 0, 7.5, 0, 0, 0, 0, 0, 0, 0, 0, 0, 7.5, 0, 0, 0, 0, 7.5, 0, 0, 0, 7.5, 0, 7.5, 0, 0, 7.5, 0, 0, 0, 7.5, 0, 0, 0, 7.5, 7.5, 0, 0, 0, 0, 0, 0, 0, 7.5, 7.5, 0, 0, 0, 7.5, 0, 0, 0, 0, 0, 0, 0, 0, 0, 0, 0, 0, 0, 0, 0, 0, 0, 0, 7.5, 0, 0, 0, 0, 0, 0, 0, 7.5, 7.5, 0, 0, 7.5, 0, 0, 0, 0, 0, 0, 0, 7.5, 7.5, 7.5, 0, 0, 0, 0, 0, 0, 0, 0, 7.5, 0, 0, 0, 7.5, 0, 0, 0, 0, 0, 0, 0, 0, 0, 7.5, 0, 0, 0, 0, 7.5, 0, 0, 0, 7.5, 0, 7.5, 0, 0, 7.5, 0, 0, 0, 7.5, 0, 0, 0, 7.5, 7.5, 0, 0, 0, 0, 0, 0, 0, 7.5, 7.5, 0, 0, 0, 7.5, 0, 0, 0, 0, 0, 0, 0, 0, 0, 0, 0, 0, 0, 0, 0, 0, 0, 0, 7.5, 0, 0, 0, 0, 0, 0, 0, 7.5, 7.5, 0, 0, 7.5, 0, 0, 0, 0, 0, 0, 0, 7.5, 7.5, 7.5, 0, 0, 0, 0, 0, 0, 0, 0, 7.5, 0, 0, 0, 7.5, 0, 0, 0, 0, 0, 0, 0, 0, 0, 7.5, 0, 0, 0, 0, 7.5, 0, 0, 0, 7.5, 0, 7.5, 0, 0, 7.5, 0, 0, 0, 7.5, 0, 0, 0, 7.5, 7.5, 0, 0, 0, 0, 0, 0, 0, 7.5, 7.5, 0, 0, 0, 7.5, 0, 0, 0, 0, 0, 0, 0, 0, 0, 0, 0, 0, 0, 0, 0, 0, 0, 0, 7.5, 0, 0, 0, 0, 0, 0, 0, 7.5, 7.5, 0, 0, 7.5, 0, 0, 0, 0, 0, 0, 0, 7.5, 7.5, 7.5, 0, 0, 0, 0, 0, 0, 0, 0, 7.5, 0, 0, 0, 7.5, 0, 0, 0, 0, 0, 0, 0, 0, 0, 7.5, 0, 0, 0, 0, 7.5, 0, 0, 0, 7.5, 0, 7.5, 0, 0, 7.5, 0, 0, 0, 7.5, 0, 0, 0, 7.5, 7.5, 0, 0, 0, 0, 0, 0, 0, 7.5, 7.5, 0, 0, 0, 7.5, 0, 0, 0, 0, 0, 0, 0, 0, 0, 0, 0, 0, 0, 0, 0, 0, 0, 0, 7.5, 0, 0, 0, 0, 0, 0, 0, 7.5, 7.5, 0, 0, 7.5, 0, 0, 0, 0, 0, 0, 0, 7.5, 7.5, 7.5, 0, 0, 0, 0, 0, 0, 0, 0, 7.5, 0, 0, 0, 7.5, 0, 0, 0, 0, 0, 0, 0, 0, 0, 7.5, 0, 0, 0, 0, 7.5, 0, 0, 0, 7.5, 0, 7.5, 0, 0, 7.5, 0, 0, 0, 7.5, 0, 0, 0, 7.5, 7.5, 0, 0, 0, 0, 0, 0, 0, 7.5, 7.5, 0, 0, 0, 7.5, 0, 0, 0, 0, 0, 0, 0, 0, 0, 0, 0, 0, 0, 0, 0, 0, 0, 0, 7.5, 0, 0, 0, 0, 0, 0, 0, 7.5, 7.5, 0, 0, 7.5, 0, 0, 0, 0, 0, 0, 0, 7.5, 7.5, 7.5, 0, 0, 0, 0, 0, 0, 0, 0, 7.5, 0, 0, 0, 7.5, 0, 0, 0, 0, 0, 0, 0, 0, 0, 7.5, 0, 0, 0, 0, 7.5, 0, 0, 0, 7.5, 0, 7.5, 0, 0, 7.5, 0, 0, 0, 7.5, 0, 0, 0, 7.5, 7.5, 0, 0, 0, 0, 0, 0, 0, 7.5, 7.5, 0, 0, 0, 7.5, 0, 0, 0, 0, 0, 0, 0, 0, 0, 0, 0, 0, 0, 0, 0, 0, 0, 0, 7.5, 0, 0, 0, 0, 0, 0, 0, 7.5, 7.5, 0, 0, 7.5, 0, 0, 0, 0, 0, 0, 0, 7.5, 7.5, 7.5, 0, 0, 0, 0, 0, 0, 0, 0, 7.5, 0, 0, 0, 7.5, 0, 0, 0, 0, 0, 0, 0, 0, 0, 7.5, 0, 0, 0, 0, 7.5, 0, 0, 0, 7.5, 0, 7.5, 0, 0, 7.5, 0, 0, 0, 7.5, 0, 0, 0, 7.5, 7.5, 0, 0, 0, 0, 0, 0, 0, 7.5, 7.5, 0, 0, 0, 7.5, 0, 0, 0, 0, 0, 0, 0, 0, 0, 0, 0, 0, 0, 0, 0, 0, 0, 0, 7.5, 0, 0, 0, 0, 0, 0, 0, 7.5, 7.5, 0, 0, 7.5, 0, 0, 0, 0, 0, 0, 0, 7.5, 7.5, 7.5, 0, 0, 0, 0, 0, 0, 0, 0, 7.5, 0, 0, 0, 7.5, 0, 0, 0, 0, 0, 0, 0, 0, 0, 7.5, 0, 0, 0, 0, 7.5, 0, 0, 0, 7.5, 0, 7.5, 0, 0, 7.5, 0, 0, 0, 7.5, 0, 0, 0, 7.5, 7.5, 0, 0, 0, 0, 0, 0, 0, 7.5, 7.5, 0, 0, 0, 7.5, 0, 0, 0, 0, 0, 0, 0, 0, 0, 0, 0, 0, 0, 0, 0, 0, 0, 0, 7.5, 0, 0, 0, 0, 0, 0, 0, 7.5, 7.5, 0, 0, 7.5, 0, 0, 0, 0, 0, 0, 0, 7.5, 7.5, 7.5, 0, 0, 0, 0, 0, 0, 0, 0, 7.5, 0, 0, 0, 7.5, 0, 0, 0, 0, 0, 0, 0, 0, 0, 7.5, 0, 0, 0, 0, 7.5, 0, 0, 0, 7.5, 0, 7.5, 0, 0, 7.5, 0, 0, 0, 7.5, 0, 0, 0, 7.5, 7.5, 0, 0, 0, 0, 0, 0, 0, 7.5, 7.5, 0, 0, 0, 7.5, 0, 0, 0, 0, 0, 0, 0, 0, 0, 0, 0, 0, 0, 0, 0, 0, 0, 0, 7.5, 0, 0, 0, 0, 0, 0, 0, 7.5, 7.5, 0, 0, 7.5, 0, 0, 0, 0, 0, 0, 0, 7.5, 7.5, 7.5, 0, 0, 0, 0, 0, 0, 0, 0, 7.5, 0, 0, 0, 7.5, 0, 0, 0, 0, 0, 0, 0, 0, 0, 7.5, 0, 0, 0, 0, 7.5, 0, 0, 0, 7.5, 0, 7.5, 0, 0, 7.5, 0, 7.5, 7.5, 0.0, 7.5, 7.5, 7.5, 0.0, 0.0, 7.5, 7.5, 7.5, 7.5, 7.5, 7.5, 7.5, 0.0, 0.0, 7.5, 7.5, 7.5, 0.0, 7.5, 7.5, 7.5, 7.5, 7.5, 7.5, 7.5, 7.5, 7.5, 7.5, 7.5, 7.5, 7.5, 7.5, 7.5, 7.5, 7.5, 7.5, 0.0, 7.5, 7.5, 7.5, 7.5, 7.5, 7.5, 7.5, 0.0, 0.0, 7.5, 7.5, 0.0, 7.5, 7.5, 7.5, 7.5, 7.5, 7.5, 7.5, 0.0, 0.0, 0.0, 7.5, 7.5, 7.5, 7.5, 7.5, 7.5, 7.5, 7.5, 0.0, 7.5, 7.5, 7.5, 0.0, 7.5, 7.5, 7.5, 7.5, 7.5, 7.5, 7.5, 7.5, 7.5, 0.0, 7.5, 7.5, 7.5, 7.5, 0.0, 7.5, 7.5, 7.5, 0.0, 7.5, 0.0, 7.5, 7.5, 0.0, 7.5, 7.5, 7.5, 0.0, 7.5, 7.5, 7.5, 0.0, 0.0, 7.5, 7.5, 7.5, 7.5, 7.5, 7.5, 7.5, 0.0, 0.0, 7.5, 7.5, 7.5, 0.0, 7.5, 7.5, 7.5, 7.5, 7.5, 7.5, 7.5, 7.5, 7.5, 7.5, 7.5, 7.5, 7.5, 7.5, 7.5, 7.5, 7.5, 7.5, 0.0, 7.5, 7.5, 7.5, 7.5, 7.5, 7.5, 7.5, 0.0, 0.0, 7.5, 7.5, 0.0, 7.5, 7.5, 7.5, 7.5, 7.5, 7.5, 7.5, 0.0, 0.0, 0.0, 7.5, 7.5, 7.5, 7.5, 7.5, 7.5, 7.5, 7.5, 0.0, 7.5, 7.5, 7.5, 0.0, 7.5, 7.5, 7.5, 7.5, 7.5, 7.5, 7.5, 7.5, 7.5, 0.0, 7.5, 7.5, 7.5, 7.5, 0.0, 7.5, 7.5, 7.5, 0.0, 7.5, 0.0, 7.5, 7.5, 0.0, 7.5, 7.5, 7.5, 0.0, 7.5, 7.5, 7.5, 0.0, 0.0, 7.5, 7.5, 7.5, 7.5, 7.5, 7.5, 7.5, 0.0, 0.0, 7.5, 7.5, 7.5, 0.0, 7.5, 7.5, 7.5, 7.5, 7.5, 7.5, 7.5, 7.5, 7.5, 7.5, 7.5, 7.5, 7.5, 7.5, 7.5, 7.5, 7.5, 7.5, 0.0, 7.5, 7.5, 7.5, 7.5, 7.5, 7.5, 7.5, 0.0, 0.0, 7.5, 7.5, 0.0, 7.5, 7.5, 7.5, 7.5, 7.5, 7.5, 7.5, 0.0, 0.0, 0.0, 7.5, 7.5, 7.5, 7.5, 7.5, 7.5, 7.5, 7.5, 0.0, 7.5, 7.5, 7.5, 0.0, 7.5, 7.5, 7.5, 7.5, 7.5, 7.5, 7.5, 7.5, 7.5, 0.0, 7.5, 7.5, 7.5, 7.5, 0.0, 7.5, 7.5, 7.5, 0.0, 7.5, 0.0, 7.5, 7.5, 0.0, 7.5, 7.5, 7.5, 0.0, 7.5, 7.5, 7.5, 0.0, 0.0, 7.5, 7.5, 7.5, 7.5, 7.5, 7.5, 7.5, 0.0, 0.0, 7.5, 7.5, 7.5, 0.0, 7.5, 7.5, 7.5, 7.5, 7.5, 7.5, 7.5, 7.5, 7.5, 7.5, 7.5, 7.5, 7.5, 7.5, 7.5, 7.5, 7.5, 7.5, 0.0, 7.5, 7.5, 7.5, 7.5, 7.5, 7.5, 7.5, 0.0, 0.0, 7.5, 7.5, 0.0, 7.5, 7.5, 7.5, 7.5, 7.5, 7.5, 7.5, 0.0, 0.0, 0.0, 7.5, 7.5, 7.5, 7.5, 7.5, 7.5, 7.5, 7.5, 0.0, 7.5, 7.5, 7.5, 0.0, 7.5, 7.5, 7.5, 7.5, 7.5, 7.5, 7.5, 7.5, 7.5, 0.0, 7.5, 7.5, 7.5, 7.5, 0.0, 7.5, 7.5, 7.5, 0.0, 7.5, 0.0, 7.5, 7.5, 0.0, 7.5, 0, 0, 7.5, 0, 0, 0, 7.5, 7.5, 0, 0, 0, 0, 0, 0, 0, 7.5, 7.5, 0, 0, 0, 7.5, 0, 0, 0, 0, 0, 0, 0, 0, 0, 0, 0, 0, 0, 0, 0, 0, 0, 0, 7.5, 0, 0, 0, 0, 0, 0, 0, 7.5, 7.5, 0, 0, 7.5, 0, 0, 0, 0, 0, 0, 0, 7.5, 7.5, 7.5, 0, 0, 0, 0, 0, 0, 0, 0, 7.5, 0, 0, 0, 7.5, 0, 0, 0, 0, 0, 0, 0, 0, 0, 7.5, 0, 0, 0, 0, 7.5, 0, 0, 0, 7.5, 0, 7.5, 0, 0, 7.5, 0, 0, 0, 7.5, 0, 0, 0, 7.5, 7.5, 0, 0, 0, 0, 0, 0, 0, 7.5, 7.5, 0, 0, 0, 7.5, 0, 0, 0, 0, 0, 0, 0, 0, 0, 0, 0, 0, 0, 0, 0, 0, 0, 0, 7.5, 0, 0, 0, 0, 0, 0, 0, 7.5, 7.5, 0, 0, 7.5, 0, 0, 0, 0, 0, 0, 0, 7.5, 7.5, 7.5, 0, 0, 0, 0, 0, 0, 0, 0, 7.5, 0, 0, 0, 7.5, 0, 0, 0, 0, 0, 0, 0, 0, 0, 7.5, 0, 0, 0, 0, 7.5, 0, 0, 0, 7.5, 0, 7.5, 0, 0, 7.5, 0, 0, 0, 7.5, 0, 0, 0, 7.5, 7.5, 0, 0, 0, 0, 0, 0, 0, 7.5, 7.5, 0, 0, 0, 7.5, 0, 0, 0, 0, 0, 0, 0, 0, 0, 0, 0, 0, 0, 0, 0, 0, 0, 0, 7.5, 0, 0, 0, 0, 0, 0, 0, 7.5, 7.5, 0, 0, 7.5, 0, 0, 0, 0, 0, 0, 0, 7.5, 7.5, 7.5, 0, 0, 0, 0, 0, 0, 0, 0, 7.5, 0, 0, 0, 7.5, 0, 0, 0, 0, 0, 0, 0, 0, 0, 7.5, 0, 0, 0, 0, 7.5, 0, 0, 0, 7.5, 0, 7.5, 0, 0, 7.5, 0, 0, 0, 7.5, 0, 0, 0, 7.5, 7.5, 0, 0, 0, 0, 0, 0, 0, 7.5, 7.5, 0, 0, 0, 7.5, 0, 0, 0, 0, 0, 0, 0, 0, 0, 0, 0, 0, 0, 0, 0, 0, 0, 0, 7.5, 0, 0, 0, 0, 0, 0, 0, 7.5, 7.5, 0, 0, 7.5, 0, 0, 0, 0, 0, 0, 0, 7.5, 7.5, 7.5, 0, 0, 0, 0, 0, 0, 0, 0, 7.5, 0, 0, 0, 7.5, 0, 0, 0, 0, 0, 0, 0, 0, 0, 7.5, 0, 0, 0, 0, 7.5, 0, 0, 0, 7.5, 0, 7.5, 0, 0, 7.5, 0, 0, 0, 7.5, 0, 0, 0, 7.5, 7.5, 0, 0, 0, 0, 0, 0, 0, 7.5, 7.5, 0, 0, 0, 7.5, 0, 0, 0, 0, 0, 0, 0, 0, 0, 0, 0, 0, 0, 0, 0, 0, 0, 0, 7.5, 0, 0, 0, 0, 0, 0, 0, 7.5, 7.5, 0, 0, 7.5, 0, 0, 0, 0, 0, 0, 0, 7.5, 7.5, 7.5, 0, 0, 0, 0, 0, 0, 0, 0, 7.5, 0, 0, 0, 7.5, 0, 0, 0, 0, 0, 0, 0, 0, 0, 7.5, 0, 0, 0, 0, 7.5, 0, 0, 0, 7.5, 0, 7.5, 0, 0, 7.5, 0, 0, 0, 7.5, 0, 0, 0, 7.5, 7.5, 0, 0, 0, 0, 0, 0, 0, 7.5, 7.5, 0, 0, 0, 7.5, 0, 0, 0, 0, 0, 0, 0, 0, 0, 0, 0, 0, 0, 0, 0, 0, 0, 0, 7.5, 0, 0, 0, 0, 0, 0, 0, 7.5, 7.5, 0, 0, 7.5, 0, 0, 0, 0, 0, 0, 0, 7.5, 7.5, 7.5, 0, 0, 0, 0, 0, 0, 0, 0, 7.5, 0, 0, 0, 7.5, 0, 0, 0, 0, 0, 0, 0, 0, 0, 7.5, 0, 0, 0, 0, 7.5, 0, 0, 0, 7.5, 0, 7.5, 0, 0, 7.5, 0, 0, 0, 7.5, 0, 0, 0, 7.5, 7.5, 0, 0, 0, 0, 0, 0, 0, 7.5, 7.5, 0, 0, 0, 7.5, 0, 0, 0, 0, 0, 0, 0, 0, 0, 0, 0, 0, 0, 0, 0, 0, 0, 0, 7.5, 0, 0, 0, 0, 0, 0, 0, 7.5, 7.5, 0, 0, 7.5, 0, 0, 0, 0, 0, 0, 0, 7.5, 7.5, 7.5, 0, 0, 0, 0, 0, 0, 0, 0, 7.5, 0, 0, 0, 7.5, 0, 0, 0, 0, 0, 0, 0, 0, 0, 7.5, 0, 0, 0, 0, 7.5, 0, 0, 0, 7.5, 0, 7.5, 0, 0, 7.5, 0, 0, 0, 7.5, 0, 0, 0, 7.5, 7.5, 0, 0, 0, 0, 0, 0, 0, 7.5, 7.5, 0, 0, 0, 7.5, 0, 0, 0, 0, 0, 0, 0, 0, 0, 0, 0, 0, 0, 0, 0, 0, 0, 0, 7.5, 0, 0, 0, 0, 0, 0, 0, 7.5, 7.5, 0, 0, 7.5, 0, 0, 0, 0, 0, 0, 0, 7.5, 7.5, 7.5, 0, 0, 0, 0, 0, 0, 0, 0, 7.5, 0, 0, 0, 7.5, 0, 0, 0, 0, 0, 0, 0, 0, 0, 7.5, 0, 0, 0, 0, 7.5, 0, 0, 0, 7.5, 0, 7.5, 0, 0, 7.5, 0, 7.5, 7.5, 0.0, 7.5, 7.5, 7.5, 0.0, 0.0, 7.5, 7.5, 7.5, 7.5, 7.5, 7.5, 7.5, 0.0, 0.0, 7.5, 7.5, 7.5, 0.0, 7.5, 7.5, 7.5, 7.5, 7.5, 7.5, 7.5, 7.5, 7.5, 7.5, 7.5, 7.5, 7.5, 7.5, 7.5, 7.5, 7.5, 7.5, 0.0, 7.5, 7.5, 7.5, 7.5, 7.5, 7.5, 7.5, 0.0, 0.0, 7.5, 7.5, 0.0, 7.5, 7.5, 7.5, 7.5, 7.5, 7.5, 7.5, 0.0, 0.0, 0.0, 7.5, 7.5, 7.5, 7.5, 7.5, 7.5, 7.5, 7.5, 0.0, 7.5, 7.5, 7.5, 0.0, 7.5, 7.5, 7.5, 7.5, 7.5, 7.5, 7.5, 7.5, 7.5, 0.0, 7.5, 7.5, 7.5, 7.5, 0.0, 7.5, 7.5, 7.5, 0.0, 7.5, 0.0, 7.5, 7.5, 0.0, 7.5, 0, 0, 7.5, 0, 0, 0, 7.5, 7.5, 0, 0, 0, 0, 0, 0, 0, 7.5, 7.5, 0, 0, 0, 7.5, 0, 0, 0, 0, 0, 0, 0, 0, 0, 0, 0, 0, 0, 0, 0, 0, 0, 0, 7.5, 0, 0, 0, 0, 0, 0, 0, 7.5, 7.5, 0, 0, 7.5, 0, 0, 0, 0, 0, 0, 0, 7.5, 7.5, 7.5, 0, 0, 0, 0, 0, 0, 0, 0, 7.5, 0, 0, 0, 7.5, 0, 0, 0, 0, 0, 0, 0, 0, 0, 7.5, 0, 0, 0, 0, 7.5, 0, 0, 0, 7.5, 0, 7.5, 0, 0, 7.5, 0, 0, 0, 7.5, 0, 0, 0, 7.5, 7.5, 0, 0, 0, 0, 0, 0, 0, 7.5, 7.5, 0, 0, 0, 7.5, 0, 0, 0, 0, 0, 0, 0, 0, 0, 0, 0, 0, 0, 0, 0, 0, 0, 0, 7.5, 0, 0, 0, 0, 0, 0, 0, 7.5, 7.5, 0, 0, 7.5, 0, 0, 0, 0, 0, 0, 0, 7.5, 7.5, 7.5, 0, 0, 0, 0, 0, 0, 0, 0, 7.5, 0, 0, 0, 7.5, 0, 0, 0, 0, 0, 0, 0, 0, 0, 7.5, 0, 0, 0, 0, 7.5, 0, 0, 0, 7.5, 0, 7.5, 0, 0, 7.5, 0, 0, 0, 7.5, 0, 0, 0, 7.5, 7.5, 0, 0, 0, 0, 0, 0, 0, 7.5, 7.5, 0, 0, 0, 7.5, 0, 0, 0, 0, 0, 0, 0, 0, 0, 0, 0, 0, 0, 0, 0, 0, 0, 0, 7.5, 0, 0, 0, 0, 0, 0, 0, 7.5, 7.5, 0, 0, 7.5, 0, 0, 0, 0, 0, 0, 0, 7.5, 7.5, 7.5, 0, 0, 0, 0, 0, 0, 0, 0, 7.5, 0, 0, 0, 7.5, 0, 0, 0, 0, 0, 0, 0, 0, 0, 7.5, 0, 0, 0, 0, 7.5, 0, 0, 0, 7.5, 0, 7.5, 0, 0, 7.5, 0, 7.5, 7.5, 0.0, 7.5, 7.5, 7.5, 0.0, 0.0, 7.5, 7.5, 7.5, 7.5, 7.5, 7.5, 7.5, 0.0, 0.0, 7.5, 7.5, 7.5, 0.0, 7.5, 7.5, 7.5, 7.5, 7.5, 7.5, 7.5, 7.5, 7.5, 7.5, 7.5, 7.5, 7.5, 7.5, 7.5, 7.5, 7.5, 7.5, 0.0, 7.5, 7.5, 7.5, 7.5, 7.5, 7.5, 7.5, 0.0, 0.0, 7.5, 7.5, 0.0, 7.5, 7.5, 7.5, 7.5, 7.5, 7.5, 7.5, 0.0, 0.0, 0.0, 7.5, 7.5, 7.5, 7.5, 7.5, 7.5, 7.5, 7.5, 0.0, 7.5, 7.5, 7.5, 0.0, 7.5, 7.5, 7.5, 7.5, 7.5, 7.5, 7.5, 7.5, 7.5, 0.0, 7.5, 7.5, 7.5, 7.5, 0.0, 7.5, 7.5, 7.5, 0.0, 7.5, 0.0, 7.5, 7.5, 0.0, 7.5, 0, 0, 7.5, 0, 0, 0, 7.5, 7.5, 0, 0, 0, 0, 0, 0, 0, 7.5, 7.5, 0, 0, 0, 7.5, 0, 0, 0, 0, 0, 0, 0, 0, 0, 0, 0, 0, 0, 0, 0, 0, 0, 0, 7.5, 0, 0, 0, 0, 0, 0, 0, 7.5, 7.5, 0, 0, 7.5, 0, 0, 0, 0, 0, 0, 0, 7.5, 7.5, 7.5, 0, 0, 0, 0, 0, 0, 0, 0, 7.5, 0, 0, 0, 7.5, 0, 0, 0, 0, 0, 0, 0, 0, 0, 7.5, 0, 0, 0, 0, 7.5, 0, 0, 0, 7.5, 0, 7.5, 0, 0, 7.5, 0, 7.5, 7.5, 0.0, 7.5, 7.5, 7.5, 0.0, 0.0, 7.5, 7.5, 7.5, 7.5, 7.5, 7.5, 7.5, 0.0, 0.0, 7.5, 7.5, 7.5, 0.0, 7.5, 7.5, 7.5, 7.5, 7.5, 7.5, 7.5, 7.5, 7.5, 7.5, 7.5, 7.5, 7.5, 7.5, 7.5, 7.5, 7.5, 7.5, 0.0, 7.5, 7.5, 7.5, 7.5, 7.5, 7.5, 7.5, 0.0, 0.0, 7.5, 7.5, 0.0, 7.5, 7.5, 7.5, 7.5, 7.5, 7.5, 7.5, 0.0, 0.0, 0.0, 7.5, 7.5, 7.5, 7.5, 7.5, 7.5, 7.5, 7.5, 0.0, 7.5, 7.5, 7.5, 0.0, 7.5, 7.5, 7.5, 7.5, 7.5, 7.5, 7.5, 7.5, 7.5, 0.0, 7.5, 7.5, 7.5, 7.5, 0.0, 7.5, 7.5, 7.5, 0.0, 7.5, 0.0, 7.5, 7.5, 0.0, 7.5, 0, 0, 7.5, 0, 0, 0, 7.5, 7.5, 0, 0, 0, 0, 0, 0, 0, 7.5, 7.5, 0, 0, 0, 7.5, 0, 0, 0, 0, 0, 0, 0, 0, 0, 0, 0, 0, 0, 0, 0, 0, 0, 0, 7.5, 0, 0, 0, 0, 0, 0, 0, 7.5, 7.5, 0, 0, 7.5, 0, 0, 0, 0, 0, 0, 0, 7.5, 7.5, 7.5, 0, 0, 0, 0, 0, 0, 0, 0, 7.5, 0, 0, 0, 7.5, 0, 0, 0, 0, 0, 0, 0, 0, 0, 7.5, 0, 0, 0, 0, 7.5, 0, 0, 0, 7.5, 0, 7.5, 0, 0, 7.5, 0, 0, 0, 7.5, 0, 0, 0, 7.5, 7.5, 0, 0, 0, 0, 0, 0, 0, 7.5, 7.5, 0, 0, 0, 7.5, 0, 0, 0, 0, 0, 0, 0, 0, 0, 0, 0, 0, 0, 0, 0, 0, 0, 0, 7.5, 0, 0, 0, 0, 0, 0, 0, 7.5, 7.5, 0, 0, 7.5, 0, 0, 0, 0, 0, 0, 0, 7.5, 7.5, 7.5, 0, 0, 0, 0, 0, 0, 0, 0, 7.5, 0, 0, 0, 7.5, 0, 0, 0, 0, 0, 0, 0, 0, 0, 7.5, 0, 0, 0, 0, 7.5, 0, 0, 0, 7.5, 0, 7.5, 0, 0, 7.5, 0, 0, 0, 7.5, 0, 0, 0, 7.5, 7.5, 0, 0, 0, 0, 0, 0, 0, 7.5, 7.5, 0, 0, 0, 7.5, 0, 0, 0, 0, 0, 0, 0, 0, 0, 0, 0, 0, 0, 0, 0, 0, 0, 0, 7.5, 0, 0, 0, 0, 0, 0, 0, 7.5, 7.5, 0, 0, 7.5, 0, 0, 0, 0, 0, 0, 0, 7.5, 7.5, 7.5, 0, 0, 0, 0, 0, 0, 0, 0, 7.5, 0, 0, 0, 7.5, 0, 0, 0, 0, 0, 0, 0, 0, 0, 7.5, 0, 0, 0, 0, 7.5, 0, 0, 0, 7.5, 0, 7.5, 0, 0, 7.5, 0, 0, 0, 7.5, 0, 0, 0, 7.5, 7.5, 0, 0, 0, 0, 0, 0, 0, 7.5, 7.5, 0, 0, 0, 7.5, 0, 0, 0, 0, 0, 0, 0, 0, 0, 0, 0, 0, 0, 0, 0, 0, 0, 0, 7.5, 0, 0, 0, 0, 0, 0, 0, 7.5, 7.5, 0, 0, 7.5, 0, 0, 0, 0, 0, 0, 0, 7.5, 7.5, 7.5, 0, 0, 0, 0, 0, 0, 0, 0, 7.5, 0, 0, 0, 7.5, 0, 0, 0, 0, 0, 0, 0, 0, 0, 7.5, 0, 0, 0, 0, 7.5, 0, 0, 0, 7.5, 0, 7.5, 0, 0, 7.5, 0, 0, 0, 7.5, 0, 0, 0, 7.5, 7.5, 0, 0, 0, 0, 0, 0, 0, 7.5, 7.5, 0, 0, 0, 7.5, 0, 0, 0, 0, 0, 0, 0, 0, 0, 0, 0, 0, 0, 0, 0, 0, 0, 0, 7.5, 0, 0, 0, 0, 0, 0, 0, 7.5, 7.5, 0, 0, 7.5, 0, 0, 0, 0, 0, 0, 0, 7.5, 7.5, 7.5, 0, 0, 0, 0, 0, 0, 0, 0, 7.5, 0, 0, 0, 7.5, 0, 0, 0, 0, 0, 0, 0, 0, 0, 7.5, 0, 0, 0, 0, 7.5, 0, 0, 0, 7.5, 0, 7.5, 0, 0, 7.5, 0, 0, 0, 7.5, 0, 0, 0, 7.5, 7.5, 0, 0, 0, 0, 0, 0, 0, 7.5, 7.5, 0, 0, 0, 7.5, 0, 0, 0, 0, 0, 0, 0, 0, 0, 0, 0, 0, 0, 0, 0, 0, 0, 0, 7.5, 0, 0, 0, 0, 0, 0, 0, 7.5, 7.5, 0, 0, 7.5, 0, 0, 0, 0, 0, 0, 0, 7.5, 7.5, 7.5, 0, 0, 0, 0, 0, 0, 0, 0, 7.5, 0, 0, 0, 7.5, 0, 0, 0, 0, 0, 0, 0, 0, 0, 7.5, 0, 0, 0, 0, 7.5, 0, 0, 0, 7.5, 0, 7.5, 0, 0, 7.5, 0, 0, 0, 7.5, 0, 0, 0, 7.5, 7.5, 0, 0, 0, 0, 0, 0, 0, 7.5, 7.5, 0, 0, 0, 7.5, 0, 0, 0, 0, 0, 0, 0, 0, 0, 0, 0, 0, 0, 0, 0, 0, 0, 0, 7.5, 0, 0, 0, 0, 0, 0, 0, 7.5, 7.5, 0, 0, 7.5, 0, 0, 0, 0, 0, 0, 0, 7.5, 7.5, 7.5, 0, 0, 0, 0, 0, 0, 0, 0, 7.5, 0, 0, 0, 7.5, 0, 0, 0, 0, 0, 0, 0, 0, 0, 7.5, 0, 0, 0, 0, 7.5, 0, 0, 0, 7.5, 0, 7.5, 0, 0, 7.5, 0, 0, 0, 7.5, 0, 0, 0, 7.5, 7.5, 0, 0, 0, 0, 0, 0, 0, 7.5, 7.5, 0, 0, 0, 7.5, 0, 0, 0, 0, 0, 0, 0, 0, 0, 0, 0, 0, 0, 0, 0, 0, 0, 0, 7.5, 0, 0, 0, 0, 0, 0, 0, 7.5, 7.5, 0, 0, 7.5, 0, 0, 0, 0, 0, 0, 0, 7.5, 7.5, 7.5, 0, 0, 0, 0, 0, 0, 0, 0, 7.5, 0, 0, 0, 7.5, 0, 0, 0, 0, 0, 0, 0, 0, 0, 7.5, 0, 0, 0, 0, 7.5, 0, 0, 0, 7.5, 0, 7.5, 0, 0, 7.5, 0, 0, 0, 7.5, 0, 0, 0, 7.5, 7.5, 0, 0, 0, 0, 0, 0, 0, 7.5, 7.5, 0, 0, 0, 7.5, 0, 0, 0, 0, 0, 0, 0, 0, 0, 0, 0, 0, 0, 0, 0, 0, 0, 0, 7.5, 0, 0, 0, 0, 0, 0, 0, 7.5, 7.5, 0, 0, 7.5, 0, 0, 0, 0, 0, 0, 0, 7.5, 7.5, 7.5, 0, 0, 0, 0, 0, 0, 0, 0, 7.5, 0, 0, 0, 7.5, 0, 0, 0, 0, 0, 0, 0, 0, 0, 7.5, 0, 0, 0, 0, 7.5, 0, 0, 0, 7.5, 0, 7.5, 0, 0, 7.5, 0, 7.5, 7.5, 0.0, 7.5, 7.5, 7.5, 0.0, 0.0, 7.5, 7.5, 7.5, 7.5, 7.5, 7.5, 7.5, 0.0, 0.0, 7.5, 7.5, 7.5, 0.0, 7.5, 7.5, 7.5, 7.5, 7.5, 7.5, 7.5, 7.5, 7.5, 7.5, 7.5, 7.5, 7.5, 7.5, 7.5, 7.5, 7.5, 7.5, 0.0, 7.5, 7.5, 7.5, 7.5, 7.5, 7.5, 7.5, 0.0, 0.0, 7.5, 7.5, 0.0, 7.5, 7.5, 7.5, 7.5, 7.5, 7.5, 7.5, 0.0, 0.0, 0.0, 7.5, 7.5, 7.5, 7.5, 7.5, 7.5, 7.5, 7.5, 0.0, 7.5, 7.5, 7.5, 0.0, 7.5, 7.5, 7.5, 7.5, 7.5, 7.5, 7.5, 7.5, 7.5, 0.0, 7.5, 7.5, 7.5, 7.5, 0.0, 7.5, 7.5, 7.5, 0.0, 7.5, 0.0, 7.5, 7.5, 0.0, 7.5, 0, 0, 7.5, 0, 0, 0, 7.5, 7.5, 0, 0, 0, 0, 0, 0, 0, 7.5, 7.5, 0, 0, 0, 7.5, 0, 0, 0, 0, 0, 0, 0, 0, 0, 0, 0, 0, 0, 0, 0, 0, 0, 0, 7.5, 0, 0, 0, 0, 0, 0, 0, 7.5, 7.5, 0, 0, 7.5, 0, 0, 0, 0, 0, 0, 0, 7.5, 7.5, 7.5, 0, 0, 0, 0, 0, 0, 0, 0, 7.5, 0, 0, 0, 7.5, 0, 0, 0, 0, 0, 0, 0, 0, 0, 7.5, 0, 0, 0, 0, 7.5, 0, 0, 0, 7.5, 0, 7.5, 0, 0, 7.5, 0, 0, 0, 7.5, 0, 0, 0, 7.5, 7.5, 0, 0, 0, 0, 0, 0, 0, 7.5, 7.5, 0, 0, 0, 7.5, 0, 0, 0, 0, 0, 0, 0, 0, 0, 0, 0, 0, 0, 0, 0, 0, 0, 0, 7.5, 0, 0, 0, 0, 0, 0, 0, 7.5, 7.5, 0, 0, 7.5, 0, 0, 0, 0, 0, 0, 0, 7.5, 7.5, 7.5, 0, 0, 0, 0, 0, 0, 0, 0, 7.5, 0, 0, 0, 7.5, 0, 0, 0, 0, 0, 0, 0, 0, 0, 7.5, 0, 0, 0, 0, 7.5, 0, 0, 0, 7.5, 0, 7.5, 0, 0, 7.5, 0, 0, 0, 7.5, 0, 0, 0, 7.5, 7.5, 0, 0, 0, 0, 0, 0, 0, 7.5, 7.5, 0, 0, 0, 7.5, 0, 0, 0, 0, 0, 0, 0, 0, 0, 0, 0, 0, 0, 0, 0, 0, 0, 0, 7.5, 0, 0, 0, 0, 0, 0, 0, 7.5, 7.5, 0, 0, 7.5, 0, 0, 0, 0, 0, 0, 0, 7.5, 7.5, 7.5, 0, 0, 0, 0, 0, 0, 0, 0, 7.5, 0, 0, 0, 7.5, 0, 0, 0, 0, 0, 0, 0, 0, 0, 7.5, 0, 0, 0, 0, 7.5, 0, 0, 0, 7.5, 0, 7.5, 0, 0, 7.5, 0, 0, 0, 7.5, 0, 0, 0, 7.5, 7.5, 0, 0, 0, 0, 0, 0, 0, 7.5, 7.5, 0, 0, 0, 7.5, 0, 0, 0, 0, 0, 0, 0, 0, 0, 0, 0, 0, 0, 0, 0, 0, 0, 0, 7.5, 0, 0, 0, 0, 0, 0, 0, 7.5, 7.5, 0, 0, 7.5, 0, 0, 0, 0, 0, 0, 0, 7.5, 7.5, 7.5, 0, 0, 0, 0, 0, 0, 0, 0, 7.5, 0, 0, 0, 7.5, 0, 0, 0, 0, 0, 0, 0, 0, 0, 7.5, 0, 0, 0, 0, 7.5, 0, 0, 0, 7.5, 0, 7.5, 0, 0, 7.5, 0, 0, 0, 7.5, 0, 0, 0, 7.5, 7.5, 0, 0, 0, 0, 0, 0, 0, 7.5, 7.5, 0, 0, 0, 7.5, 0, 0, 0, 0, 0, 0, 0, 0, 0, 0, 0, 0, 0, 0, 0, 0, 0, 0, 7.5, 0, 0, 0, 0, 0, 0, 0, 7.5, 7.5, 0, 0, 7.5, 0, 0, 0, 0, 0, 0, 0, 7.5, 7.5, 7.5, 0, 0, 0, 0, 0, 0, 0, 0, 7.5, 0, 0, 0, 7.5, 0, 0, 0, 0, 0, 0, 0, 0, 0, 7.5, 0, 0, 0, 0, 7.5, 0, 0, 0, 7.5, 0, 7.5, 0, 0, 7.5, 0, 0, 0, 7.5, 0, 0, 0, 7.5, 7.5, 0, 0, 0, 0, 0, 0, 0, 7.5, 7.5, 0, 0, 0, 7.5, 0, 0, 0, 0, 0, 0, 0, 0, 0, 0, 0, 0, 0, 0, 0, 0, 0, 0, 7.5, 0, 0, 0, 0, 0, 0, 0, 7.5, 7.5, 0, 0, 7.5, 0, 0, 0, 0, 0, 0, 0, 7.5, 7.5, 7.5, 0, 0, 0, 0, 0, 0, 0, 0, 7.5, 0, 0, 0, 7.5, 0, 0, 0, 0, 0, 0, 0, 0, 0, 7.5, 0, 0, 0, 0, 7.5, 0, 0, 0, 7.5, 0, 7.5, 0, 0, 7.5, 0, 0, 0, 7.5, 0, 0, 0, 7.5, 7.5, 0, 0, 0, 0, 0, 0, 0, 7.5, 7.5, 0, 0, 0, 7.5, 0, 0, 0, 0, 0, 0, 0, 0, 0, 0, 0, 0, 0, 0, 0, 0, 0, 0, 7.5, 0, 0, 0, 0, 0, 0, 0, 7.5, 7.5, 0, 0, 7.5, 0, 0, 0, 0, 0, 0, 0, 7.5, 7.5, 7.5, 0, 0, 0, 0, 0, 0, 0, 0, 7.5, 0, 0, 0, 7.5, 0, 0, 0, 0, 0, 0, 0, 0, 0, 7.5, 0, 0, 0, 0, 7.5, 0, 0, 0, 7.5, 0, 7.5, 0, 0, 7.5, 0, 0, 0, 7.5, 0, 0, 0, 7.5, 7.5, 0, 0, 0, 0, 0, 0, 0, 7.5, 7.5, 0, 0, 0, 7.5, 0, 0, 0, 0, 0, 0, 0, 0, 0, 0, 0, 0, 0, 0, 0, 0, 0, 0, 7.5, 0, 0, 0, 0, 0, 0, 0, 7.5, 7.5, 0, 0, 7.5, 0, 0, 0, 0, 0, 0, 0, 7.5, 7.5, 7.5, 0, 0, 0, 0, 0, 0, 0, 0, 7.5, 0, 0, 0, 7.5, 0, 0, 0, 0, 0, 0, 0, 0, 0, 7.5, 0, 0, 0, 0, 7.5, 0, 0, 0, 7.5, 0, 7.5, 0, 0, 7.5, 0, 0, 0, 7.5, 0, 0, 0, 7.5, 7.5, 0, 0, 0, 0, 0, 0, 0, 7.5, 7.5, 0, 0, 0, 7.5, 0, 0, 0, 0, 0, 0, 0, 0, 0, 0, 0, 0, 0, 0, 0, 0, 0, 0, 7.5, 0, 0, 0, 0, 0, 0, 0, 7.5, 7.5, 0, 0, 7.5, 0, 0, 0, 0, 0, 0, 0, 7.5, 7.5, 7.5, 0, 0, 0, 0, 0, 0, 0, 0, 7.5, 0, 0, 0, 7.5, 0, 0, 0, 0, 0, 0, 0, 0, 0, 7.5, 0, 0, 0, 0, 7.5, 0, 0, 0, 7.5, 0, 7.5, 0, 0, 7.5, 0, 7.5, 7.5, 0.0, 7.5, 7.5, 7.5, 0.0, 0.0, 7.5, 7.5, 7.5, 7.5, 7.5, 7.5, 7.5, 0.0, 0.0, 7.5, 7.5, 7.5, 0.0, 7.5, 7.5, 7.5, 7.5, 7.5, 7.5, 7.5, 7.5, 7.5, 7.5, 7.5, 7.5, 7.5, 7.5, 7.5, 7.5, 7.5, 7.5, 0.0, 7.5, 7.5, 7.5, 7.5, 7.5, 7.5, 7.5, 0.0, 0.0, 7.5, 7.5, 0.0, 7.5, 7.5, 7.5, 7.5, 7.5, 7.5, 7.5, 0.0, 0.0, 0.0, 7.5, 7.5, 7.5, 7.5, 7.5, 7.5, 7.5, 7.5, 0.0, 7.5, 7.5, 7.5, 0.0, 7.5, 7.5, 7.5, 7.5, 7.5, 7.5, 7.5, 7.5, 7.5, 0.0, 7.5, 7.5, 7.5, 7.5, 0.0, 7.5, 7.5, 7.5, 0.0, 7.5, 0.0, 7.5, 7.5, 0.0, 7.5, 7.5, 7.5, 0.0, 7.5, 7.5, 7.5, 0.0, 0.0, 7.5, 7.5, 7.5, 7.5, 7.5, 7.5, 7.5, 0.0, 0.0, 7.5, 7.5, 7.5, 0.0, 7.5, 7.5, 7.5, 7.5, 7.5, 7.5, 7.5, 7.5, 7.5, 7.5, 7.5, 7.5, 7.5, 7.5, 7.5, 7.5, 7.5, 7.5, 0.0, 7.5, 7.5, 7.5, 7.5, 7.5, 7.5, 7.5, 0.0, 0.0, 7.5, 7.5, 0.0, 7.5, 7.5, 7.5, 7.5, 7.5, 7.5, 7.5, 0.0, 0.0, 0.0, 7.5, 7.5, 7.5, 7.5, 7.5, 7.5, 7.5, 7.5, 0.0, 7.5, 7.5, 7.5, 0.0, 7.5, 7.5, 7.5, 7.5, 7.5, 7.5, 7.5, 7.5, 7.5, 0.0, 7.5, 7.5, 7.5, 7.5, 0.0, 7.5, 7.5, 7.5, 0.0, 7.5, 0.0, 7.5, 7.5, 0.0, 7.5, 0, 0, 7.5, 0, 0, 0, 7.5, 7.5, 0, 0, 0, 0, 0, 0, 0, 7.5, 7.5, 0, 0, 0, 7.5, 0, 0, 0, 0, 0, 0, 0, 0, 0, 0, 0, 0, 0, 0, 0, 0, 0, 0, 7.5, 0, 0, 0, 0, 0, 0, 0, 7.5, 7.5, 0, 0, 7.5, 0, 0, 0, 0, 0, 0, 0, 7.5, 7.5, 7.5, 0, 0, 0, 0, 0, 0, 0, 0, 7.5, 0, 0, 0, 7.5, 0, 0, 0, 0, 0, 0, 0, 0, 0, 7.5, 0, 0, 0, 0, 7.5, 0, 0, 0, 7.5, 0, 7.5, 0, 0, 7.5, 0, 0, 0, 7.5, 0, 0, 0, 7.5, 7.5, 0, 0, 0, 0, 0, 0, 0, 7.5, 7.5, 0, 0, 0, 7.5, 0, 0, 0, 0, 0, 0, 0, 0, 0, 0, 0, 0, 0, 0, 0, 0, 0, 0, 7.5, 0, 0, 0, 0, 0, 0, 0, 7.5, 7.5, 0, 0, 7.5, 0, 0, 0, 0, 0, 0, 0, 7.5, 7.5, 7.5, 0, 0, 0, 0, 0, 0, 0, 0, 7.5, 0, 0, 0, 7.5, 0, 0, 0, 0, 0, 0, 0, 0, 0, 7.5, 0, 0, 0, 0, 7.5, 0, 0, 0, 7.5, 0, 7.5, 0, 0, 7.5, 0, 0, 0, 7.5, 0, 0, 0, 7.5, 7.5, 0, 0, 0, 0, 0, 0, 0, 7.5, 7.5, 0, 0, 0, 7.5, 0, 0, 0, 0, 0, 0, 0, 0, 0, 0, 0, 0, 0, 0, 0, 0, 0, 0, 7.5, 0, 0, 0, 0, 0, 0, 0, 7.5, 7.5, 0, 0, 7.5, 0, 0, 0, 0, 0, 0, 0, 7.5, 7.5, 7.5, 0, 0, 0, 0, 0, 0, 0, 0, 7.5, 0, 0, 0, 7.5, 0, 0, 0, 0, 0, 0, 0, 0, 0, 7.5, 0, 0, 0, 0, 7.5, 0, 0, 0, 7.5, 0, 7.5, 0, 0, 7.5, 0]);
